Set parameter TokenServer to value "hpc-licenses.hpcc.usc.edu"
Set parameter TimeLimit to value 3600
Gurobi Optimizer version 9.5.1 build v9.5.1rc2 (linux64)
Thread count: 20 physical cores, 20 logical processors, using up to 20 threads
Optimize a model with 6007 rows, 4529 columns and 24534 nonzeros
Model fingerprint: 0x2b3975e3
Variable types: 4506 continuous, 23 integer (23 binary)
Coefficient statistics:
  Matrix range     [1e+00, 1e+00]
  Objective range  [6e-05, 1e+00]
  Bounds range     [1e+00, 1e+00]
  RHS range        [1e+00, 2e+01]
Found heuristic solution: objective 219.5280849
Presolve removed 1520 rows and 1515 columns
Presolve time: 0.09s
Presolved: 4487 rows, 3014 columns, 21975 nonzeros
Variable types: 2994 continuous, 20 integer (20 binary)

Root relaxation: objective 2.234163e+02, 1469 iterations, 0.05 seconds (0.05 work units)

    Nodes    |    Current Node    |     Objective Bounds      |     Work
 Expl Unexpl |  Obj  Depth IntInf | Incumbent    BestBd   Gap | It/Node Time

     0     0  223.41632    0    3  219.52808  223.41632  1.77%     -    0s
H    0     0                     219.9712813  223.41632  1.57%     -    0s
     0     0  223.34425    0    3  219.97128  223.34425  1.53%     -    0s
     0     0  223.33456    0    4  219.97128  223.33456  1.53%     -    0s
H    0     0                     222.9749111  223.33456  0.16%     -    0s
     0     0  223.32688    0    4  222.97491  223.32688  0.16%     -    0s
     0     0  223.32688    0    3  222.97491  223.32688  0.16%     -    0s
     0     0  222.97491    0    3  222.97491  222.97491  0.00%     -    1s

Cutting planes:
  Gomory: 4
  MIR: 33
  RLT: 1

Explored 1 nodes (3217 simplex iterations) in 1.23 seconds (0.54 work units)
Thread count was 20 (of 20 available processors)

Solution count 3: 222.975 219.971 219.528 

Optimal solution found (tolerance 1.00e-04)
Best objective 2.229749111463e+02, best bound 2.229749111463e+02, gap 0.0000%



#########node  1
V1.9
#########node  2
0.5833333333333335,0.4166666666666665
#########node  3
1.0,0.0


Total Solving Time 1.590498924255371
obj value 222.97491114625905
Policy Regret train (Sum) 18.45955782590308
Best Treatment Found train (%) 39.800000000000004
treatment classification acc train (%) 49.0
Policy Regret test (Sum) 274.1591725630516
Best Treatment Found test (%) 42.61
treatment classification acc test (%) 49.559999999999995
